NAME : tsp30_20.182.tour
COMMENT : Length = 182
COMMENT : Found by LKH [Keld Helsgaun]
TYPE : TOUR
DIMENSION : 30
TOUR_SECTION
1
11
6
21
25
22
19
2
23
20
3
24
10
30
16
18
27
5
12
26
7
13
4
14
9
8
29
15
17
28
-1
EOF
